21
1 0 18
2 0 16
2 1 17
3 0 5
3 1 11
3 2 20
4 0 7
4 1 13
4 2 6
4 3 13
5 2 20
5 4 18
6 1 22
6 2 6
6 3 3
6 4 21
6 5 1
7 0 2
7 3 18
7 4 7
7 5 4
7 6 1
8 0 16
8 5 21
8 7 22
9 1 12
9 2 11
9 5 4
9 7 15
10 0 20
10 1 12
10 3 7
10 5 8
10 6 17
11 1 13
11 2 7
11 3 6
11 5 6
11 6 11
11 8 1
11 9 6
11 10 22
12 0 22
12 8 5
12 9 21
12 10 4
12 11 1
13 1 20
13 2 4
13 3 9
13 7 4
13 8 8
13 11 14
14 0 7
14 3 14
14 4 10
14 5 19
14 6 8
14 12 21
15 4 14
15 5 7
15 6 7
15 8 6
15 11 10
15 12 9
15 13 8
16 1 10
16 3 22
16 4 10
16 5 4
16 10 15
16 12 22
16 14 19
16 15 6
17 1 21
17 4 6
17 6 3
17 11 21
17 15 22
17 16 6
18 2 12
18 4 4
18 5 12
18 6 3
18 7 14
18 11 3
18 14 13
18 15 3
19 0 16
19 2 14
19 4 4
19 5 5
19 6 9
19 9 10
19 11 22
19 12 11
19 13 13
19 14 10
19 15 14
19 18 1
20 2 21
20 3 14
20 8 19
20 9 18
20 10 10
20 11 3
20 13 19
20 16 6
20 19 22
